0 47 38 20 27 19 30 1 3 5 45 16 9 14 34
43 0 38 41 14 6 2 44 26 10 7 23 17 41 38
33 40 0 45 20 21 7 29 8 41 43 36 3 50 40
3 12 28 0 35 41 29 45 34 10 2 5 44 27 17
21 33 30 14 0 30 6 36 31 9 12 46 6 3 39
16 20 23 17 13 0 34 15 6 23 37 23 19 16 40
49 47 1 24 39 39 0 11 18 15 36 33 16 45 43
29 49 48 1 38 12 33 0 18 36 40 44 26 37 30
28 30 10 37 48 39 16 8 0 32 24 17 42 23 28
41 44 49 27 34 30 15 20 20 0 30 26 10 13 15
32 28 11 15 12 46 50 22 48 19 0 44 10 38 34
32 19 18 29 31 18 6 19 42 42 27 0 34 13 39
19 39 33 46 24 39 31 35 23 50 49 8 0 31 43
50 47 27 50 19 50 6 37 11 48 30 18 3 0 25
28 24 44 9 19 42 20 20 12 31 15 24 37 7 0
